
Gurobi 10.0.1 (linux64) logging started Sun Nov 26 15:37:24 2023

Set parameter LogFile to value "ArtificialInstance/ExperimentV2/S3T3K1/BaSp/gurobi1.txt"
Gurobi Optimizer version 10.0.1 build v10.0.1rc0 (linux64)

CPU model: AMD EPYC 7H12 64-Core Processor, instruction set [SSE2|AVX|AVX2]
Thread count: 128 physical cores, 128 logical processors, using up to 32 threads

Academic license 656792 - for non-commercial use only - registered to b.___@student.vu.nl
Optimize a model with 1080 rows, 1600 columns and 4960 nonzeros
Model fingerprint: 0xd54df393
Variable types: 0 continuous, 1600 integer (1600 binary)
Coefficient statistics:
  Matrix range     [1e+00, 1e+00]
  Objective range  [1e+00, 2e+01]
  Bounds range     [1e+00, 1e+00]
  RHS range        [1e+00, 1e+00]
Found heuristic solution: objective 641.0328958
Presolve time: 0.01s
Presolved: 1080 rows, 1600 columns, 4960 nonzeros
Variable types: 0 continuous, 1600 integer (1600 binary)

Root relaxation: objective 3.291937e+01, 667 iterations, 0.01 seconds (0.01 work units)

    Nodes    |    Current Node    |     Objective Bounds      |     Work
 Expl Unexpl |  Obj  Depth IntInf | Incumbent    BestBd   Gap | It/Node Time

     0     0   32.91937    0  168  641.03290   32.91937  94.9%     -    0s
H    0     0                     184.6311762   32.91937  82.2%     -    0s
H    0     0                     108.9979090   32.91937  69.8%     -    0s
H    0     0                      50.2041564   32.91937  34.4%     -    0s
H    0     0                      43.6816326   36.62956  16.1%     -    0s
     0     0   36.62956    0  191   43.68163   36.62956  16.1%     -    0s
H    0     0                      42.5227391   36.62956  13.9%     -    0s
     0     0   38.33718    0  176   42.52274   38.33718  9.84%     -    0s
     0     0   39.37698    0  167   42.52274   39.37698  7.40%     -    0s
     0     0   39.37698    0  161   42.52274   39.37698  7.40%     -    0s
     0     0   39.37698    0  143   42.52274   39.37698  7.40%     -    0s
     0     0   39.48876    0  147   42.52274   39.48876  7.13%     -    0s
     0     0   40.15584    0  216   42.52274   40.15584  5.57%     -    0s
     0     0   40.23855    0  216   42.52274   40.23855  5.37%     -    0s
     0     0   40.24705    0  222   42.52274   40.24705  5.35%     -    0s
H    0     0                      41.9949029   40.24705  4.16%     -    0s
     0     0   40.25263    0  239   41.99490   40.25263  4.15%     -    0s
     0     0   40.25263    0  240   41.99490   40.25263  4.15%     -    0s
     0     0   40.69382    0  273   41.99490   40.69382  3.10%     -    0s
     0     0   40.69382    0  274   41.99490   40.69382  3.10%     -    0s
     0     0   41.22277    0  267   41.99490   41.22277  1.84%     -    0s
     0     0   41.43456    0  274   41.99490   41.43456  1.33%     -    0s

Cutting planes:
  Gomory: 16
  Clique: 5
  Zero half: 43
  RLT: 15

Explored 1 nodes (3076 simplex iterations) in 0.40 seconds (0.13 work units)
Thread count was 32 (of 128 available processors)

Solution count 7: 41.9949 42.5227 43.6816 ... 641.033

Optimal solution found (tolerance 1.00e-04)
Best objective 4.199490288091e+01, best bound 4.199490288091e+01, gap 0.0000%
